problems/csplib-prob015/SchursLemma-models/noch/O2/lingeling/model_1_2-6-17-solution000001.eprime-solution
language ESSENCE' 1.0

letting boxes_PartitionAsSet_ExplicitR6_ExplicitVarSizeWithDummy be
        [[1, 3, 6, 10, 12, 14, 18, 18, 18, 18, 18, 18, 18, 18, 18, 18, 18; int(1..17)],
         [2, 4, 8, 11, 18, 18, 18, 18, 18, 18, 18, 18, 18, 18, 18, 18, 18; int(1..17)],
         [5, 9, 18, 18, 18, 18, 18, 18, 18, 18, 18, 18, 18, 18, 18, 18, 18; int(1..17)],
         [7, 18, 18, 18, 18, 18, 18, 18, 18, 18, 18, 18, 18, 18, 18, 18, 18; int(1..17)],
         [13, 18, 18, 18, 18, 18, 18, 18, 18, 18, 18, 18, 18, 18, 18, 18, 18; int(1..17)],
         [15, 16, 17, 18, 18, 18, 18, 18, 18, 18, 18, 18, 18, 18, 18, 18, 18; int(1..17)]; int(1..6)]
