problems/csplib-prob015/SchursLemma-models/noch/O2/lingeling/model_1_2-6-17-solution000001.solution
language Essence 1.3

letting boxes be partition({1, 3, 6, 10, 12, 14}, {2, 4, 8, 11}, {5, 9}, {7}, {13}, {15, 16, 17})
